decision_x1=[0,7];
decision_x2=[0,7];
decision_x3=[0,7];
decision_x4=[0,7];
decision_x5=[0,7];
decision_x6=[0,7];
decision_x7=[0,7];
decision_x8=[0,7];
decision_x9=[0,7];
decision_x10=[0,7];
decision_x11=[0,7];
decision_x12=[0,7];
decision_x13=[0,7];
decision_x14=[0,7];
decision_x15=[0,7];
decision_x16=[0,7];
random_y1=[0,7];
random_y2=[0,7];
random_y3=[0,7];
random_y4=[0,7];
random_y5=[0,7];
random_y6=[0,7];
random_y7=[0,7];
constraint_x2_x1=[
0,0,8.1|
0,1,1.5|
0,2,2.2|
0,3,6.1|
0,4,6.1|
0,5,8.7|
0,6,6|
0,7,2.3|
1,0,1.1|
1,1,0.99|
1,2,4.7|
1,3,6.1|
1,4,0.031|
1,5,7.5|
1,6,6.1|
1,7,6.7|
2,0,2.2|
2,1,0.37|
2,2,5.1|
2,3,8.7|
2,4,4.1|
2,5,5.2|
2,6,5|
2,7,5|
3,0,7.9|
3,1,0.36|
3,2,7.4|
3,3,6.5|
3,4,7.4|
3,5,7.4|
3,6,5.7|
3,7,4.6|
4,0,3.1|
4,1,8|
4,2,8.5|
4,3,6|
4,4,7.9|
4,5,6|
4,6,7|
4,7,6|
5,0,1.9|
5,1,7.3|
5,2,1.5|
5,3,0.93|
5,4,3.5|
5,5,6.5|
5,6,8.1|
5,7,8.3|
6,0,8.1|
6,1,2.2|
6,2,7.8|
6,3,7.8|
6,4,9.7|
6,5,7.4|
6,6,0.4|
6,7,5.1|
7,0,6.7|
7,1,0.54|
7,2,0.52|
7,3,2.7|
7,4,9.2|
7,5,5.4|
7,6,0.75|
7,7,2.7|
];
constraint_x3_x2=[
0,0,8.5|
0,1,3.5|
0,2,5|
0,3,0.06|
0,4,6.8|
0,5,1.8|
0,6,8.3|
0,7,2|
1,0,6.6|
1,1,2.1|
1,2,2.3|
1,3,8.8|
1,4,9.5|
1,5,7.5|
1,6,5.4|
1,7,6.2|
2,0,5.9|
2,1,3.7|
2,2,1.8|
2,3,5.2|
2,4,4|
2,5,3.1|
2,6,9.9|
2,7,2|
3,0,3.8|
3,1,2.9|
3,2,8.2|
3,3,2|
3,4,6.3|
3,5,2.1|
3,6,10|
3,7,5.1|
4,0,8.3|
4,1,3.3|
4,2,5.1|
4,3,0.43|
4,4,9.6|
4,5,9.1|
4,6,7.1|
4,7,4.5|
5,0,4.7|
5,1,9.4|
5,2,9.1|
5,3,2|
5,4,6.2|
5,5,3.2|
5,6,5.1|
5,7,5.6|
6,0,3.7|
6,1,0.16|
6,2,5.9|
6,3,5.9|
6,4,0.041|
6,5,8.9|
6,6,7.4|
6,7,0.64|
7,0,0.065|
7,1,1.6|
7,2,9.7|
7,3,3.2|
7,4,5.1|
7,5,2.4|
7,6,3.2|
7,7,6.7|
];
constraint_x4_x3=[
0,0,1.5|
0,1,9.4|
0,2,10|
0,3,3.2|
0,4,1.7|
0,5,5.9|
0,6,0.48|
0,7,8.3|
1,0,2.2|
1,1,4.9|
1,2,8.4|
1,3,2.3|
1,4,5.8|
1,5,1.4|
1,6,8.8|
1,7,5.4|
2,0,0.97|
2,1,7.4|
2,2,2.3|
2,3,8|
2,4,5.4|
2,5,1.9|
2,6,4.2|
2,7,5.1|
3,0,1.6|
3,1,9.7|
3,2,2.7|
3,3,2.8|
3,4,4.6|
3,5,1.5|
3,6,8.5|
3,7,5.6|
4,0,5.7|
4,1,2.3|
4,2,4.6|
4,3,8.6|
4,4,8.3|
4,5,7.2|
4,6,4.7|
4,7,9.8|
5,0,4.4|
5,1,1.5|
5,2,6.2|
5,3,0.48|
5,4,3.8|
5,5,0.34|
5,6,3.1|
5,7,1.2|
6,0,0.62|
6,1,6.9|
6,2,1.7|
6,3,3.6|
6,4,0.28|
6,5,8.2|
6,6,6.8|
6,7,6.4|
7,0,3.3|
7,1,1.5|
7,2,8|
7,3,7.4|
7,4,7.9|
7,5,2.8|
7,6,5.5|
7,7,1.4|
];
constraint_x5_x1=[
0,0,8.3|
0,1,6.4|
0,2,5.7|
0,3,0.25|
0,4,5.3|
0,5,4.9|
0,6,9.6|
0,7,5.3|
1,0,0.58|
1,1,3.9|
1,2,6.1|
1,3,1|
1,4,0.31|
1,5,6.1|
1,6,3.5|
1,7,1.7|
2,0,9.2|
2,1,9.6|
2,2,5.7|
2,3,7.4|
2,4,2.3|
2,5,8.2|
2,6,4.6|
2,7,2.1|
3,0,2.3|
3,1,8.1|
3,2,9.2|
3,3,7.3|
3,4,4.9|
3,5,7.4|
3,6,4.8|
3,7,9.6|
4,0,7.3|
4,1,0.6|
4,2,9.5|
4,3,9.3|
4,4,0.92|
4,5,5.9|
4,6,0.68|
4,7,8|
5,0,6.4|
5,1,9.4|
5,2,2.2|
5,3,10|
5,4,8.2|
5,5,1.3|
5,6,5.3|
5,7,2.3|
6,0,2.5|
6,1,6.4|
6,2,7.7|
6,3,2.5|
6,4,4.2|
6,5,1.2|
6,6,1.3|
6,7,9.6|
7,0,8.1|
7,1,3.5|
7,2,0.43|
7,3,2.3|
7,4,2.1|
7,5,1.4|
7,6,9.7|
7,7,9.7|
];
constraint_x6_x2=[
0,0,7.7|
0,1,1.3|
0,2,5.1|
0,3,1.7|
0,4,2.7|
0,5,6.3|
0,6,6.5|
0,7,3.7|
1,0,9.8|
1,1,5.4|
1,2,0.66|
1,3,4.2|
1,4,6.5|
1,5,6.9|
1,6,4.4|
1,7,4.9|
2,0,2.5|
2,1,0.94|
2,2,5.2|
2,3,5.5|
2,4,0.97|
2,5,9.9|
2,6,5.2|
2,7,3.3|
3,0,3.6|
3,1,1.5|
3,2,9|
3,3,0.75|
3,4,9.7|
3,5,3.7|
3,6,6.5|
3,7,5.1|
4,0,6.4|
4,1,1.8|
4,2,9|
4,3,0.93|
4,4,5.2|
4,5,0.26|
4,6,6.9|
4,7,4.5|
5,0,0.96|
5,1,2|
5,2,3.7|
5,3,1.9|
5,4,9.2|
5,5,0.16|
5,6,1|
5,7,4.8|
6,0,3|
6,1,5.8|
6,2,8|
6,3,0.49|
6,4,5.3|
6,5,5.6|
6,6,4.6|
6,7,6.2|
7,0,6.4|
7,1,7.4|
7,2,6.5|
7,3,0.5|
7,4,7|
7,5,6.6|
7,6,5.6|
7,7,9.7|
];
constraint_x7_x3=[
0,0,8|
0,1,7.7|
0,2,7|
0,3,5.6|
0,4,3.4|
0,5,0.94|
0,6,4.1|
0,7,5.1|
1,0,4.9|
1,1,9.6|
1,2,5.7|
1,3,0.28|
1,4,4.8|
1,5,4.6|
1,6,9.1|
1,7,7.9|
2,0,2.4|
2,1,8.5|
2,2,2.6|
2,3,1.6|
2,4,9.6|
2,5,9.5|
2,6,8.7|
2,7,5.1|
3,0,5|
3,1,7.5|
3,2,0.054|
3,3,7.1|
3,4,3.3|
3,5,9.3|
3,6,1.2|
3,7,8.2|
4,0,2.6|
4,1,0.67|
4,2,8.6|
4,3,0.37|
4,4,9|
4,5,0.87|
4,6,8.4|
4,7,7.4|
5,0,6.3|
5,1,6.7|
5,2,1.5|
5,3,7.9|
5,4,7.5|
5,5,0.8|
5,6,0.65|
5,7,9.5|
6,0,0.34|
6,1,9.7|
6,2,1.2|
6,3,1.4|
6,4,3.7|
6,5,2.4|
6,6,8.8|
6,7,2.5|
7,0,1.9|
7,1,5.2|
7,2,1.9|
7,3,1.3|
7,4,4.4|
7,5,8.4|
7,6,5.1|
7,7,3.1|
];
constraint_x8_x4=[
0,0,0.65|
0,1,3.5|
0,2,2.8|
0,3,4.9|
0,4,1.5|
0,5,6.9|
0,6,1.7|
0,7,3.6|
1,0,6.6|
1,1,3.6|
1,2,6.6|
1,3,0.34|
1,4,0.44|
1,5,9.2|
1,6,1.6|
1,7,3|
2,0,9.4|
2,1,0.7|
2,2,2.9|
2,3,4|
2,4,8|
2,5,3|
2,6,2.7|
2,7,0.9|
3,0,2.6|
3,1,5.7|
3,2,7.8|
3,3,0.55|
3,4,5.3|
3,5,5.9|
3,6,7|
3,7,2.7|
4,0,6|
4,1,9.5|
4,2,5.6|
4,3,8.5|
4,4,2.9|
4,5,4.9|
4,6,5.2|
4,7,8.9|
5,0,6.3|
5,1,8.3|
5,2,3.3|
5,3,4.1|
5,4,4.5|
5,5,0.51|
5,6,2.4|
5,7,8.5|
6,0,9.3|
6,1,9.1|
6,2,3.3|
6,3,1|
6,4,3.7|
6,5,2.5|
6,6,7.9|
6,7,0.59|
7,0,7.6|
7,1,2.1|
7,2,9.5|
7,3,7.1|
7,4,2.7|
7,5,4.6|
7,6,4.9|
7,7,7.6|
];
constraint_x9_x5=[
0,0,3.1|
0,1,8.8|
0,2,1.7|
0,3,9.1|
0,4,7.9|
0,5,3.3|
0,6,3.9|
0,7,1.9|
1,0,1.7|
1,1,9.1|
1,2,3.5|
1,3,8.2|
1,4,1.1|
1,5,6.1|
1,6,7.4|
1,7,1.3|
2,0,9.2|
2,1,3.9|
2,2,3.4|
2,3,6|
2,4,4|
2,5,6.9|
2,6,0.031|
2,7,7.9|
3,0,9.4|
3,1,7.6|
3,2,9.1|
3,3,5.7|
3,4,8.8|
3,5,1.2|
3,6,2.9|
3,7,9|
4,0,5.8|
4,1,5|
4,2,1.5|
4,3,7.5|
4,4,8.8|
4,5,9.1|
4,6,3.8|
4,7,7.7|
5,0,5|
5,1,5|
5,2,1.7|
5,3,0.15|
5,4,0.34|
5,5,1.6|
5,6,8.2|
5,7,5.2|
6,0,2.3|
6,1,5.7|
6,2,5|
6,3,5.4|
6,4,9.3|
6,5,6.2|
6,6,9.6|
6,7,4.7|
7,0,0.087|
7,1,9.5|
7,2,9.2|
7,3,3.8|
7,4,2.4|
7,5,5.7|
7,6,1.5|
7,7,2.7|
];
constraint_x10_x6=[
0,0,3.5|
0,1,9|
0,2,1.1|
0,3,6.9|
0,4,8.4|
0,5,6.2|
0,6,6.8|
0,7,8.5|
1,0,6.2|
1,1,6.3|
1,2,8.4|
1,3,3.1|
1,4,4.5|
1,5,0.84|
1,6,8.8|
1,7,5.2|
2,0,4.4|
2,1,8.6|
2,2,4|
2,3,4.1|
2,4,9.9|
2,5,3.1|
2,6,8.6|
2,7,6.4|
3,0,7.2|
3,1,6.7|
3,2,2.1|
3,3,6.6|
3,4,3.9|
3,5,5.1|
3,6,4.9|
3,7,2.6|
4,0,2.7|
4,1,9.6|
4,2,4.9|
4,3,1.6|
4,4,9.5|
4,5,1.3|
4,6,2.2|
4,7,5.6|
5,0,2.5|
5,1,9.2|
5,2,9.5|
5,3,5.9|
5,4,6.6|
5,5,9.1|
5,6,8.8|
5,7,8|
6,0,9.6|
6,1,6.3|
6,2,2.1|
6,3,4.7|
6,4,9.7|
6,5,2.7|
6,6,1.3|
6,7,2.2|
7,0,4.1|
7,1,8|
7,2,0.5|
7,3,9|
7,4,3.6|
7,5,6.8|
7,6,8.6|
7,7,9.9|
];
constraint_x11_x7=[
0,0,1.9|
0,1,6.8|
0,2,5.7|
0,3,7.6|
0,4,4.1|
0,5,7.5|
0,6,2.7|
0,7,8.2|
1,0,9.9|
1,1,4.9|
1,2,4.8|
1,3,8|
1,4,9|
1,5,1.9|
1,6,9.8|
1,7,8.4|
2,0,1|
2,1,0.39|
2,2,3.7|
2,3,4.5|
2,4,4.7|
2,5,9|
2,6,3.4|
2,7,7.3|
3,0,2|
3,1,1.8|
3,2,7.5|
3,3,4.4|
3,4,0.34|
3,5,7.4|
3,6,8.5|
3,7,4.3|
4,0,6.6|
4,1,6.3|
4,2,6.5|
4,3,1.1|
4,4,10|
4,5,7.3|
4,6,5.2|
4,7,5.7|
5,0,6.1|
5,1,1.5|
5,2,9.4|
5,3,1.2|
5,4,3.3|
5,5,1.2|
5,6,7.6|
5,7,7.2|
6,0,2.2|
6,1,3.6|
6,2,9.5|
6,3,0.24|
6,4,0.35|
6,5,3|
6,6,8.5|
6,7,0.063|
7,0,8.7|
7,1,3.4|
7,2,5.6|
7,3,7.7|
7,4,9.6|
7,5,0.034|
7,6,0.14|
7,7,9.1|
];
constraint_x12_x8=[
0,0,4.5|
0,1,1.9|
0,2,3|
0,3,4.3|
0,4,6.5|
0,5,5.8|
0,6,7.4|
0,7,4.1|
1,0,6.8|
1,1,4.8|
1,2,0.93|
1,3,5.8|
1,4,0.055|
1,5,8.3|
1,6,0.84|
1,7,2.3|
2,0,1.1|
2,1,9.9|
2,2,7.2|
2,3,6.7|
2,4,5|
2,5,7.4|
2,6,9.6|
2,7,4.7|
3,0,7.6|
3,1,4.8|
3,2,4.1|
3,3,8.7|
3,4,4.5|
3,5,8.8|
3,6,6|
3,7,5.1|
4,0,7.4|
4,1,7.6|
4,2,4.6|
4,3,7.1|
4,4,6.8|
4,5,8.3|
4,6,5.9|
4,7,2.7|
5,0,6.4|
5,1,9.3|
5,2,3.7|
5,3,9.1|
5,4,0.3|
5,5,2.5|
5,6,6|
5,7,7|
6,0,0.47|
6,1,6.1|
6,2,7.8|
6,3,6.6|
6,4,4.8|
6,5,3.7|
6,6,9.4|
6,7,2.1|
7,0,0.95|
7,1,2.2|
7,2,0.83|
7,3,0.26|
7,4,4.2|
7,5,7|
7,6,9.5|
7,7,3.6|
];
constraint_x13_x9=[
0,0,2.9|
0,1,8.8|
0,2,7.1|
0,3,2.4|
0,4,2.6|
0,5,9.6|
0,6,1.3|
0,7,7.3|
1,0,4.1|
1,1,2.6|
1,2,4.9|
1,3,3.4|
1,4,1.1|
1,5,0.32|
1,6,5.4|
1,7,1|
2,0,1.7|
2,1,9.5|
2,2,4.1|
2,3,3.7|
2,4,1.9|
2,5,0.69|
2,6,3.5|
2,7,9.9|
3,0,6.3|
3,1,8.5|
3,2,8.6|
3,3,0.74|
3,4,8.9|
3,5,9.3|
3,6,4.6|
3,7,8.6|
4,0,5.5|
4,1,4.2|
4,2,2.5|
4,3,7.6|
4,4,3.9|
4,5,7|
4,6,9|
4,7,6.7|
5,0,2|
5,1,6.2|
5,2,4.8|
5,3,1.1|
5,4,3.4|
5,5,0.43|
5,6,0.43|
5,7,9.2|
6,0,7.1|
6,1,7.1|
6,2,3.7|
6,3,6.2|
6,4,3.7|
6,5,1.5|
6,6,8.8|
6,7,5.7|
7,0,8.4|
7,1,5.6|
7,2,7.1|
7,3,9.5|
7,4,0.22|
7,5,6.8|
7,6,7.4|
7,7,7.9|
];
constraint_x14_x10=[
0,0,2.2|
0,1,4.7|
0,2,0.74|
0,3,8.7|
0,4,4.8|
0,5,1.7|
0,6,3.1|
0,7,3|
1,0,5.1|
1,1,6.8|
1,2,7|
1,3,7.7|
1,4,4.6|
1,5,7.4|
1,6,5.1|
1,7,8.8|
2,0,4.5|
2,1,7.3|
2,2,6.6|
2,3,6.5|
2,4,0.8|
2,5,8.7|
2,6,9|
2,7,4.8|
3,0,5.3|
3,1,8.7|
3,2,4.8|
3,3,5.9|
3,4,3.1|
3,5,8.5|
3,6,3.8|
3,7,3.8|
4,0,7.1|
4,1,1.6|
4,2,1.8|
4,3,1.2|
4,4,5|
4,5,6.7|
4,6,6.6|
4,7,0.85|
5,0,9.3|
5,1,0.85|
5,2,1.6|
5,3,6.9|
5,4,9.5|
5,5,5.6|
5,6,0.75|
5,7,6.2|
6,0,0.33|
6,1,3|
6,2,0.94|
6,3,2.2|
6,4,3.1|
6,5,8.9|
6,6,4.3|
6,7,7|
7,0,7.6|
7,1,5|
7,2,7.3|
7,3,0.71|
7,4,5.9|
7,5,9.2|
7,6,2.8|
7,7,6.7|
];
constraint_x15_x11=[
0,0,8.9|
0,1,2.8|
0,2,5.9|
0,3,7.6|
0,4,7.4|
0,5,7.8|
0,6,7.2|
0,7,4.2|
1,0,6.4|
1,1,6.8|
1,2,0.21|
1,3,3.3|
1,4,6.1|
1,5,9.7|
1,6,10|
1,7,0.74|
2,0,5.9|
2,1,7.4|
2,2,6.8|
2,3,3.8|
2,4,3.6|
2,5,9.5|
2,6,2.6|
2,7,2.8|
3,0,6.8|
3,1,2|
3,2,8.1|
3,3,7.9|
3,4,0.35|
3,5,4.4|
3,6,2.4|
3,7,0.39|
4,0,2.7|
4,1,9.1|
4,2,6.6|
4,3,9.3|
4,4,1.2|
4,5,1.8|
4,6,9.6|
4,7,8|
5,0,5.7|
5,1,7.3|
5,2,3.4|
5,3,8.6|
5,4,3.5|
5,5,7.9|
5,6,5.4|
5,7,0.094|
6,0,2.5|
6,1,2.9|
6,2,1.8|
6,3,1.3|
6,4,1.8|
6,5,3.1|
6,6,0.4|
6,7,3.4|
7,0,8.7|
7,1,5.2|
7,2,1.1|
7,3,8.6|
7,4,5.6|
7,5,1.2|
7,6,7.8|
7,7,5.9|
];
constraint_x16_x12=[
0,0,4.8|
0,1,8.4|
0,2,8.4|
0,3,6.1|
0,4,2.7|
0,5,5|
0,6,0.32|
0,7,3.5|
1,0,9.8|
1,1,8.9|
1,2,9|
1,3,0.55|
1,4,1.4|
1,5,5.2|
1,6,3.4|
1,7,2.5|
2,0,6|
2,1,1.8|
2,2,5.9|
2,3,8.2|
2,4,1.1|
2,5,9.4|
2,6,1.1|
2,7,7.8|
3,0,7.8|
3,1,3.5|
3,2,1.4|
3,3,8.7|
3,4,1.1|
3,5,9.7|
3,6,0.25|
3,7,4.8|
4,0,2.5|
4,1,2.6|
4,2,4.5|
4,3,6.8|
4,4,5.1|
4,5,2.5|
4,6,5.4|
4,7,1.7|
5,0,4.3|
5,1,7.5|
5,2,7.6|
5,3,8.5|
5,4,6.8|
5,5,8.4|
5,6,7|
5,7,5.1|
6,0,9.5|
6,1,2.2|
6,2,0.014|
6,3,1.3|
6,4,7.3|
6,5,2|
6,6,5.4|
6,7,5.4|
7,0,9.2|
7,1,7.1|
7,2,8.1|
7,3,6.7|
7,4,2.3|
7,5,6.7|
7,6,1.2|
7,7,2.2|
];
constraint_x1_y1=[
0,0,3.7|
0,1,4.9|
0,2,2.8|
0,3,9|
0,4,2.9|
0,5,6.7|
0,6,7.2|
0,7,7|
1,0,0.97|
1,1,0.22|
1,2,8.5|
1,3,0.34|
1,4,3.7|
1,5,1.1|
1,6,3.5|
1,7,0.065|
2,0,5.1|
2,1,6.1|
2,2,8.2|
2,3,1.5|
2,4,4.6|
2,5,6.9|
2,6,8.9|
2,7,9.9|
3,0,8.8|
3,1,5.6|
3,2,2.2|
3,3,0.83|
3,4,1|
3,5,9.6|
3,6,3.2|
3,7,5.3|
4,0,0.73|
4,1,8.2|
4,2,5.7|
4,3,6.4|
4,4,0.5|
4,5,2.2|
4,6,3.4|
4,7,8.1|
5,0,1.7|
5,1,8.8|
5,2,4.4|
5,3,8.9|
5,4,2.9|
5,5,2.2|
5,6,3|
5,7,9.4|
6,0,0.34|
6,1,5.9|
6,2,8.8|
6,3,6.9|
6,4,9.4|
6,5,5.6|
6,6,7.6|
6,7,4.5|
7,0,9.9|
7,1,9|
7,2,7.7|
7,3,5.6|
7,4,6.3|
7,5,5.5|
7,6,9.5|
7,7,0.44|
];
constraint_x2_y2=[
0,0,3.3|
0,1,1.9|
0,2,5.8|
0,3,8.8|
0,4,2.5|
0,5,1.6|
0,6,0.76|
0,7,3.8|
1,0,4.8|
1,1,7.2|
1,2,0.54|
1,3,1.4|
1,4,1.8|
1,5,9.1|
1,6,4.2|
1,7,9.9|
2,0,7.7|
2,1,5|
2,2,9.9|
2,3,3.5|
2,4,4.7|
2,5,6.3|
2,6,8.8|
2,7,2.9|
3,0,0.52|
3,1,4.6|
3,2,0.84|
3,3,8.3|
3,4,8.3|
3,5,3.5|
3,6,0.17|
3,7,5.2|
4,0,9.1|
4,1,4.4|
4,2,3.4|
4,3,1.3|
4,4,6.7|
4,5,0.34|
4,6,5.5|
4,7,6.3|
5,0,0.56|
5,1,7.8|
5,2,7|
5,3,9.9|
5,4,7.5|
5,5,8|
5,6,8.9|
5,7,3.6|
6,0,0.69|
6,1,1.7|
6,2,6.1|
6,3,2.3|
6,4,7.7|
6,5,3.6|
6,6,5.5|
6,7,3.7|
7,0,8.6|
7,1,2.7|
7,2,7.5|
7,3,4.7|
7,4,8.1|
7,5,10|
7,6,0.25|
7,7,5.2|
];
constraint_x3_y3=[
0,0,0.58|
0,1,7.8|
0,2,1.3|
0,3,1.2|
0,4,10|
0,5,7.5|
0,6,2.5|
0,7,1.8|
1,0,0.56|
1,1,6.7|
1,2,2.8|
1,3,6.2|
1,4,4.5|
1,5,3|
1,6,0.94|
1,7,1.9|
2,0,8|
2,1,0.0088|
2,2,1.1|
2,3,8.5|
2,4,8|
2,5,7.2|
2,6,4.9|
2,7,4|
3,0,3.8|
3,1,9.5|
3,2,7.7|
3,3,1.3|
3,4,3.8|
3,5,5.5|
3,6,7|
3,7,9.2|
4,0,2.6|
4,1,9.7|
4,2,2|
4,3,7.6|
4,4,6.2|
4,5,0.5|
4,6,2.6|
4,7,9|
5,0,9|
5,1,3|
5,2,0.79|
5,3,9|
5,4,7.5|
5,5,7.4|
5,6,5.5|
5,7,3.2|
6,0,0.57|
6,1,0.092|
6,2,1.3|
6,3,4.7|
6,4,3.5|
6,5,5.9|
6,6,7.9|
6,7,10|
7,0,4.4|
7,1,2.6|
7,2,5.2|
7,3,4.1|
7,4,1.9|
7,5,9.1|
7,6,4.7|
7,7,7.1|
];
constraint_x4_y4=[
0,0,8.6|
0,1,9.3|
0,2,8.2|
0,3,1.1|
0,4,4.3|
0,5,0.26|
0,6,3.5|
0,7,9.2|
1,0,7.2|
1,1,6.7|
1,2,6.6|
1,3,5.3|
1,4,0.93|
1,5,2.3|
1,6,7.2|
1,7,3.1|
2,0,0.45|
2,1,1.9|
2,2,1.3|
2,3,5.9|
2,4,0.007|
2,5,5.2|
2,6,8.1|
2,7,6.2|
3,0,8.7|
3,1,9.6|
3,2,4.1|
3,3,1.3|
3,4,9.5|
3,5,7.8|
3,6,2.1|
3,7,6.2|
4,0,8.6|
4,1,4.5|
4,2,5.7|
4,3,7.9|
4,4,3.9|
4,5,2|
4,6,1.5|
4,7,3.5|
5,0,8.8|
5,1,3|
5,2,9.4|
5,3,9.4|
5,4,1.9|
5,5,4.9|
5,6,0.19|
5,7,4|
6,0,8|
6,1,7|
6,2,4.1|
6,3,3.2|
6,4,4.4|
6,5,2.5|
6,6,3.6|
6,7,3.1|
7,0,6|
7,1,8|
7,2,1.6|
7,3,7|
7,4,3.9|
7,5,6.2|
7,6,8.6|
7,7,5|
];
constraint_x5_y5=[
0,0,1.4|
0,1,8.9|
0,2,6.7|
0,3,6.4|
0,4,0.32|
0,5,8.8|
0,6,6.3|
0,7,2.8|
1,0,4.2|
1,1,9.1|
1,2,3.8|
1,3,9.6|
1,4,1.8|
1,5,7.6|
1,6,2.8|
1,7,3.4|
2,0,4.4|
2,1,8.7|
2,2,2.8|
2,3,7.5|
2,4,9.3|
2,5,5.7|
2,6,7.4|
2,7,3.6|
3,0,5|
3,1,3.2|
3,2,7.4|
3,3,7.1|
3,4,4.6|
3,5,0.67|
3,6,7.5|
3,7,8.3|
4,0,3.7|
4,1,6.4|
4,2,4.7|
4,3,0.052|
4,4,1.7|
4,5,3.2|
4,6,9.9|
4,7,3.2|
5,0,8.3|
5,1,5.4|
5,2,8.2|
5,3,3|
5,4,7|
5,5,7.2|
5,6,9.3|
5,7,1.1|
6,0,4.4|
6,1,3.1|
6,2,5.3|
6,3,3.4|
6,4,9.1|
6,5,5|
6,6,4.4|
6,7,7.7|
7,0,2|
7,1,9.4|
7,2,6.5|
7,3,9.7|
7,4,1.4|
7,5,1.5|
7,6,2.9|
7,7,9.1|
];
constraint_x6_y6=[
0,0,7.2|
0,1,0.26|
0,2,2.2|
0,3,4|
0,4,0.67|
0,5,9.1|
0,6,3.7|
0,7,6.3|
1,0,1.3|
1,1,5.2|
1,2,2.5|
1,3,7.9|
1,4,1.8|
1,5,6.8|
1,6,5.1|
1,7,1.3|
2,0,9.3|
2,1,9.2|
2,2,6.7|
2,3,1.5|
2,4,8.1|
2,5,7.7|
2,6,8.8|
2,7,7.7|
3,0,4.1|
3,1,2.4|
3,2,4.1|
3,3,3.4|
3,4,2.6|
3,5,3.3|
3,6,9.5|
3,7,3.1|
4,0,3.1|
4,1,8.1|
4,2,6.2|
4,3,7.3|
4,4,3.5|
4,5,8.7|
4,6,2.9|
4,7,6.8|
5,0,1.9|
5,1,4.8|
5,2,5|
5,3,0.28|
5,4,2.1|
5,5,8.4|
5,6,4.9|
5,7,0.92|
6,0,8.9|
6,1,5.6|
6,2,2.6|
6,3,3.7|
6,4,7.4|
6,5,1.5|
6,6,6.4|
6,7,3.7|
7,0,2.2|
7,1,2.9|
7,2,4.8|
7,3,7.6|
7,4,1.3|
7,5,3.1|
7,6,8.3|
7,7,4.1|
];
constraint_x7_y7=[
0,0,3|
0,1,7.5|
0,2,4.8|
0,3,6.6|
0,4,3.2|
0,5,3.9|
0,6,5.8|
0,7,1.1|
1,0,2.3|
1,1,0.65|
1,2,0.065|
1,3,4.8|
1,4,7.9|
1,5,3.8|
1,6,10|
1,7,10|
2,0,2.2|
2,1,1.3|
2,2,9.6|
2,3,7.2|
2,4,1.7|
2,5,6|
2,6,7.5|
2,7,4.2|
3,0,7.4|
3,1,8.6|
3,2,7.9|
3,3,8.6|
3,4,3|
3,5,9.8|
3,6,2.6|
3,7,1.9|
4,0,9.5|
4,1,5.5|
4,2,5.5|
4,3,7.8|
4,4,5.1|
4,5,0.54|
4,6,5.9|
4,7,9.1|
5,0,6|
5,1,3.1|
5,2,1.2|
5,3,6.2|
5,4,7.6|
5,5,2.4|
5,6,2.6|
5,7,1.5|
6,0,3.6|
6,1,0.72|
6,2,2.1|
6,3,9.9|
6,4,1.3|
6,5,0.75|
6,6,4.5|
6,7,6.3|
7,0,3|
7,1,1.5|
7,2,7.8|
7,3,1.2|
7,4,0.48|
7,5,3.5|
7,6,6.3|
7,7,5.3|
];
initial_distribution_y1=[0.089,0.047,0.22,0.24,0.09,0.12,0.19,0.0051];
initial_distribution_y2=[0.21,0.16,0.19,0.086,0.03,0.19,0.12,0.0074];
initial_distribution_y3=[0.085,0.025,0.023,0.081,0.14,0.039,0.33,0.27];
initial_distribution_y4=[0.16,0.15,0.0053,0.11,0.16,0.048,0.15,0.22];
initial_distribution_y5=[0.16,0.085,0.031,0.12,0.13,0.19,0.2,0.085];
initial_distribution_y6=[0.038,0.042,0.004,0.3,0.24,0.17,0.037,0.17];
initial_distribution_y7=[0.2,0.2,0.045,0.12,0.039,0.013,0.2,0.18];
transition_y1=[
0.13,0.18,0.046,0.18,0.12,0.097,0.04,0.21|
0.18,0.18,0.072,0.16,0.092,0.13,0.16,0.031|
0.21,0.21,0.018,0.1,0.054,0.12,0.074,0.21|
0.23,0.11,0.061,0.16,0.029,0.11,0.085,0.22|
0.089,0.11,0.19,0.062,0.1,0.19,0.18,0.081|
0.19,0.07,0.2,0.022,0.14,0.18,0.013,0.19|
0.086,0.24,0.038,0.16,0.076,0.16,0.14,0.094|
0.046,0.19,0.03,0.16,0.18,0.18,0.064,0.15|
];
transition_y2=[
0.039,0.098,0.072,0.11,0.22,0.24,0.12,0.1|
0.019,0.042,0.3,0.22,0.24,0.071,0.065,0.04|
0.031,0.057,0.024,0.2,0.25,0.16,0.075,0.2|
0.2,0.1,0.0028,0.16,0.029,0.082,0.25,0.17|
0.14,0.12,0.031,0.12,0.14,0.2,0.065,0.19|
0.19,0.061,0.22,0.18,0.13,0.0098,0.024,0.18|
0.2,0.18,0.15,0.072,0.14,0.092,0.17,0.0096|
0.03,0.15,0.0093,0.03,0.12,0.34,0.21,0.11|
];
transition_y3=[
0.21,0.082,0.17,0.15,0.046,0.078,0.17,0.09|
0.13,0.15,0.11,0.057,0.15,0.095,0.17,0.13|
0.1,0.25,0.22,0.14,0.005,0.044,0.097,0.14|
0.19,0.12,0.1,0.22,0.24,0.043,0.048,0.032|
0.15,0.035,0.13,0.11,0.071,0.21,0.15,0.14|
0.16,0.064,0.19,0.16,0.027,0.15,0.16,0.095|
0.19,0.15,0.099,0.1,0.12,0.17,0.088,0.083|
0.15,0.081,0.11,0.1,0.12,0.15,0.089,0.2|
];
transition_y4=[
0.14,0.13,0.2,0.071,0.0068,0.14,0.16,0.14|
0.046,0.2,0.088,0.083,0.21,0.19,0.1,0.079|
0.2,0.14,0.14,0.026,0.26,0.047,0.13,0.063|
0.09,0.31,0.019,0.11,0.098,0.04,0.31,0.021|
0.035,0.19,0.0032,0.093,0.21,0.24,0.13,0.098|
0.066,0.28,0.15,0.26,0.09,0.047,0.086,0.022|
0.08,0.12,0.15,0.15,0.18,0.14,0.16,0.017|
0.035,0.02,0.0043,0.23,0.22,0.15,0.2,0.15|
];
transition_y5=[
0.03,0.0082,0.089,0.19,0.037,0.2,0.19,0.25|
0.12,0.071,0.17,0.21,0.13,0.15,0.13,0.0092|
0.19,0.19,0.014,0.0044,0.12,0.17,0.16,0.14|
0.039,0.18,0.21,0.15,0.067,0.15,0.21,0.0057|
0.13,0.04,0.25,0.0051,0.058,0.29,0.11,0.12|
0.29,0.059,0.19,0.27,0.043,0.1,0.029,0.021|
0.15,0.087,0.12,0.03,0.068,0.19,0.22,0.14|
0.12,0.17,0.033,0.25,0.032,0.27,0.11,0.02|
];
transition_y6=[
0.028,0.17,0.16,0.16,0.11,0.094,0.21,0.074|
0.19,0.2,0.094,0.087,0.036,0.12,0.21,0.055|
0.018,0.19,0.18,0.053,0.097,0.19,0.095,0.17|
0.14,0.11,0.17,0.022,0.052,0.2,0.15,0.16|
0.17,0.1,0.17,0.22,0.094,0.092,0.0096,0.14|
0.1,0.2,0.031,0.19,0.11,0.065,0.15,0.15|
0.061,0.23,0.17,0.031,0.031,0.06,0.19,0.23|
0.077,0.049,0.19,0.012,0.12,0.16,0.11,0.28|
];
transition_y7=[
0.16,0.11,0.025,0.074,0.24,0.19,0.041,0.17|
0.11,0.2,0.083,0.14,0.09,0.056,0.19,0.13|
0.22,0.031,0.095,0.13,0.21,0.12,0.07,0.13|
0.031,0.22,0.075,0.16,0.06,0.27,0.065,0.12|
0.21,0.1,0.19,0.075,0.18,0.036,0.12,0.084|
0.26,0.034,0.2,0.034,0.24,0.036,0.16,0.043|
0.16,0.19,0.073,0.0047,0.028,0.11,0.28,0.15|
0.15,0.15,0.22,0.16,0.044,0.072,0.12,0.08|
];
